% seed = 4300795

mint = 44;
% maxt = 111;

nActs = 22;
dur = [0,5,10,6,7,5,2,9,4,10,1,7,1,3,4,3,6,5,10,8,5,0];

nSkills = 4;
sreq = [| 0,0,0,0,
	| 3,3,2,3,
	| 3,1,3,3,
	| 1,2,2,2,
	| 3,3,3,2,
	| 1,1,2,2,
	| 3,2,1,2,
	| 1,3,1,3,
	| 3,1,1,1,
	| 3,3,2,1,
	| 1,1,1,1,
	| 3,3,1,3,
	| 1,2,2,1,
	| 2,1,1,2,
	| 2,2,2,1,
	| 1,2,2,3,
	| 2,3,3,3,
	| 3,1,2,1,
	| 2,1,3,2,
	| 3,2,1,2,
	| 3,3,1,2,
	| 0,0,0,0, |];

nResources = 20;
mastery = [| false,false,true,false,
	| true,false,false,false,
	| true,false,false,true,
	| false,false,true,false,
	| false,false,false,true,
	| false,true,false,true,
	| true,false,false,false,
	| true,true,false,true,
	| true,true,true,false,
	| true,true,false,true,
	| false,false,true,true,
	| true,true,false,false,
	| true,true,true,false,
	| false,true,true,true,
	| true,false,true,true,
	| true,true,false,true,
	| true,true,false,true,
	| false,false,true,false,
	| false,true,true,true,
	| true,false,true,true, |];

nPrecs = 43;
pred = [1,1,1,2,2,2,3,3,3,4,4,5,5,5,6,6,6,7,7,7,8,8,9,9,9,10,10,11,11,12,12,13,14,14,14,15,16,16,17,18,19,20,21];
succ = [2,3,4,12,14,16,5,6,7,6,7,17,15,8,10,20,15,9,11,8,12,14,18,14,15,11,16,17,13,20,21,18,19,20,21,19,17,19,18,21,22,22,22];

nUnrels = 81;
unpred = [2,2,2,2,2,2,2,2,2,2,2,3,4,5,5,5,5,5,5,5,6,6,6,6,6,7,7,8,8,8,8,8,8,8,8,9,9,9,9,9,9,10,10,10,10,11,11,11,11,11,11,12,12,12,12,12,12,12,13,13,13,13,13,13,14,14,14,14,15,15,15,15,15,16,17,17,18,18,19,19,20];
unsucc = [3,4,5,6,7,8,9,10,11,13,15,4,5,6,7,9,10,11,13,16,7,8,9,12,14,10,16,9,10,11,13,15,16,17,18,10,11,12,13,16,17,12,14,15,20,12,14,15,16,19,20,13,14,15,16,17,18,19,14,15,16,17,19,20,15,16,17,18,16,17,18,20,21,20,19,20,19,20,20,21,21];

USEFUL_RES = [{},
	{1,2,3,4,5,6,7,8,9,10,11,12,13,14,15,16,17,18,19,20},
	{1,2,3,4,5,6,7,8,9,10,11,12,13,14,15,16,17,18,19,20},
	{1,2,3,4,5,6,7,8,9,10,11,12,13,14,15,16,17,18,19,20},
	{1,2,3,4,5,6,7,8,9,10,11,12,13,14,15,16,17,18,19,20},
	{1,2,3,4,5,6,7,8,9,10,11,12,13,14,15,16,17,18,19,20},
	{1,2,3,4,5,6,7,8,9,10,11,12,13,14,15,16,17,18,19,20},
	{1,2,3,4,5,6,7,8,9,10,11,12,13,14,15,16,17,18,19,20},
	{1,2,3,4,5,6,7,8,9,10,11,12,13,14,15,16,17,18,19,20},
	{1,2,3,4,5,6,7,8,9,10,11,12,13,14,15,16,17,18,19,20},
	{1,2,3,4,5,6,7,8,9,10,11,12,13,14,15,16,17,18,19,20},
	{1,2,3,4,5,6,7,8,9,10,11,12,13,14,15,16,17,18,19,20},
	{1,2,3,4,5,6,7,8,9,10,11,12,13,14,15,16,17,18,19,20},
	{1,2,3,4,5,6,7,8,9,10,11,12,13,14,15,16,17,18,19,20},
	{1,2,3,4,5,6,7,8,9,10,11,12,13,14,15,16,17,18,19,20},
	{1,2,3,4,5,6,7,8,9,10,11,12,13,14,15,16,17,18,19,20},
	{1,2,3,4,5,6,7,8,9,10,11,12,13,14,15,16,17,18,19,20},
	{1,2,3,4,5,6,7,8,9,10,11,12,13,14,15,16,17,18,19,20},
	{1,2,3,4,5,6,7,8,9,10,11,12,13,14,15,16,17,18,19,20},
	{1,2,3,4,5,6,7,8,9,10,11,12,13,14,15,16,17,18,19,20},
	{1,2,3,4,5,6,7,8,9,10,11,12,13,14,15,16,17,18,19,20},
	{}];

POTENTIAL_ACT = [{2,3,4,5,6,7,8,9,10,11,12,13,14,15,16,17,18,19,20,21},
	{2,3,4,5,6,7,8,9,10,11,12,13,14,15,16,17,18,19,20,21},
	{2,3,4,5,6,7,8,9,10,11,12,13,14,15,16,17,18,19,20,21},
	{2,3,4,5,6,7,8,9,10,11,12,13,14,15,16,17,18,19,20,21},
	{2,3,4,5,6,7,8,9,10,11,12,13,14,15,16,17,18,19,20,21},
	{2,3,4,5,6,7,8,9,10,11,12,13,14,15,16,17,18,19,20,21},
	{2,3,4,5,6,7,8,9,10,11,12,13,14,15,16,17,18,19,20,21},
	{2,3,4,5,6,7,8,9,10,11,12,13,14,15,16,17,18,19,20,21},
	{2,3,4,5,6,7,8,9,10,11,12,13,14,15,16,17,18,19,20,21},
	{2,3,4,5,6,7,8,9,10,11,12,13,14,15,16,17,18,19,20,21},
	{2,3,4,5,6,7,8,9,10,11,12,13,14,15,16,17,18,19,20,21},
	{2,3,4,5,6,7,8,9,10,11,12,13,14,15,16,17,18,19,20,21},
	{2,3,4,5,6,7,8,9,10,11,12,13,14,15,16,17,18,19,20,21},
	{2,3,4,5,6,7,8,9,10,11,12,13,14,15,16,17,18,19,20,21},
	{2,3,4,5,6,7,8,9,10,11,12,13,14,15,16,17,18,19,20,21},
	{2,3,4,5,6,7,8,9,10,11,12,13,14,15,16,17,18,19,20,21},
	{2,3,4,5,6,7,8,9,10,11,12,13,14,15,16,17,18,19,20,21},
	{2,3,4,5,6,7,8,9,10,11,12,13,14,15,16,17,18,19,20,21},
	{2,3,4,5,6,7,8,9,10,11,12,13,14,15,16,17,18,19,20,21},
	{2,3,4,5,6,7,8,9,10,11,12,13,14,15,16,17,18,19,20,21}];
